p edge 23 50
e 1 4
e 1 5
e 1 9
e 1 13
e 1 21
e 1 23
e 2 5
e 2 6
e 2 8
e 2 11
e 2 12
e 2 19
e 2 21
e 3 7
e 3 10
e 3 11
e 4 5
e 4 7
e 4 9
e 4 16
e 4 18
e 5 14
e 5 22
e 6 7
e 6 8
e 6 10
e 6 13
e 6 20
e 8 11
e 8 12
e 8 15
e 8 16
e 8 22
e 9 21
e 9 22
e 9 23
e 10 17
e 11 12
e 11 13
e 11 15
e 11 16
e 11 18
e 12 15
e 12 16
e 12 22
e 15 16
e 15 17
e 15 20
e 15 23
e 17 20
